problem_generation/data/GISP/train/er_n=60_m=1053_p=0.60_SET2_setparam=100.00_alpha=0.50_139.lp
maximize
OBJ:100x0 + 100x1 + 100x2 + 100x3 + 100x4 + 100x5 + 100x6 + 100x7 + 100x8 + 100x9 + 100x10 + 100x11 + 100x12 + 100x13 + 100x14 + 100x15 + 100x16 + 100x17 + 100x18 + 100x19 + 100x20 + 100x21 + 100x22 + 100x23 + 100x24 + 100x25 + 100x26 + 100x27 + 100x28 + 100x29 + 100x30 + 100x31 + 100x32 + 100x33 + 100x34 + 100x35 + 100x36 + 100x37 + 100x38 + 100x39 + 100x40 + 100x41 + 100x42 + 100x43 + 100x44 + 100x45 + 100x46 + 100x47 + 100x48 + 100x49 + 100x50 + 100x51 + 100x52 + 100x53 + 100x54 + 100x55 + 100x56 + 100x57 + 100x58 + 100x59 - y15_21 - y15_30 - y29_32 - y29_41 - y40_41 - y8_18 - y0_14 - y29_50 - y40_50 - y21_46 - y29_59 - y21_55 - y41_42 - y44_47 - y2_41 - y33_56 - y2_50 - y15_16 - y18_21 - y36_57 - y28_53 - y7_30 - y9_49 - y18_30 - y9_58 - y6_43 - y40_45 - y10_31 - y10_49 - y2_45 - y51_59 - y2_54 - y32_55 - y14_28 - y16_56 - y36_43 - y7_16 - y47_52 - y5_46 - y17_57 - y9_53 - y6_38 - y29_40 - y21_45 - y21_54 - y10_17 - y10_26 - y2_22 - y33_37 - y25_33 - y2_49 - y3_14 - y32_50 - y13_46 - y32_59 - y28_34 - y7_11 - y17_43 - y28_43 - y5_50 - y28_52 - y9_48 - y5_59 - y21_22 - y20_53 - y54_55 - y2_26 - y10_39 - y12_58 - y2_35 - y51_58 - y24_41 - y16_37 - y17_29 - y5_36 - y28_38 - y5_54 - y28_56 - y21_35 - y6_46 - y2_3 - y20_39 - y10_25 - y12_44 - y20_57 - y12_53 - y4_49 - y13_27 - y32_40 - y1_34 - y13_36 - y43_49 - y16_32 - y24_45 - y16_41 - y17_24 - y36_37 - y5_31 - y28_33 - y17_42 - y9_38 - y6_14 - y50_57 - y20_34 - y2_7 - y2_16 - y31_52 - y23_48 - y12_57 - y24_31 - y16_27 - y5_17 - y17_19 - y49_51 - y5_35 - y17_37 - y6_9 - y27_41 - y6_18 - y27_50 - y8_46 - y42_48 - y39_42 - y12_34 - y2_11 - y12_43 - y4_39 - y23_52 - y4_48 - y13_26 - y24_26 - y4_57 - y32_39 - y13_35 - y1_42 - y13_44 - y35_44 - y57_59 - y15_53 - y6_13 - y8_32 - y27_45 - y8_41 - y42_43 - y8_50 - y11_46 - y8_59 - y39_46 - y31_42 - y20_51 - y4_43 - y34_53 - y1_37 - y37_58 - y1_46 - y9_14 - y26_57 - y49_59 - y8_27 - y19_27 - y30_36 - y8_45 - y19_45 - y27_58 - y0_41 - y11_41 - y8_54 - y30_54 - y42_47 - y11_50 - y20_37 - y4_29 - y1_5 - y13_16 - y4_47 - y24_25 - y56_57 - y1_32 - y15_34 - y5_11 - y38_45 - y18_39 - y49_54 - y19_22 - y0_18 - y11_18 - y30_31 - y11_36 - y30_49 - y11_45 - y41_46 - y20_23 - y4_6 - y12_19 - y41_55 - y52_55 - y23_28 - y34_52 - y3_46 - y3_55 - y14_55 - y15_29 - y7_25 - y15_38 - y38_40 - y18_34 - y38_49 - y18_52 - y19_35 - y0_40 - y11_49 - y12_14 - y41_50 - y10_53 - y1_4 - y3_41 - y14_41 - y45_56 - y3_50 - y3_59 - y15_24 - y15_33 - y7_29 - y18_29 - y15_42 - y8_12 - y7_56 - y48_57 - y29_53 - y8_30 - y11_26 - y21_58 - y11_35 - y4_5 - y25_37 - y4_14 - y25_46 - y25_55 - y34_42 - y22_49 - y45_51 - y37_47 - y22_58 - y3_54 - y15_19 - y0_21 - y11_30 - y33_36 - y52_58 - y10_52 - y44_54 - y25_50 - y3_13 - y2_57 - y22_35 - y34_37 - y3_31 - y3_40 - y14_40 - y14_49 - y36_46 - y15_23 - y55_59 - y36_55 - y47_55 - y26_32 - y7_28 - y18_37 - y8_11 - y6_41 - y29_43 - y6_59 - y2_25 - y25_27 - y10_38 - y44_49 - y2_43 - y51_57 - y25_54 - y13_58 - y24_58 - y47_50 - y36_59 - y9_51 - y21_34 - y6_45 - y40_47 - y21_52 - y10_24 - y54_58 - y10_33 - y2_29 - y33_44 - y10_51 - y22_25 - y43_57 - y3_30 - y47_54 - y5_48 - y5_57 - y21_29 - y21_38 - y6_49 - y40_51 - y39_55 - y2_15 - y2_24 - y25_35 - y32_52 - y13_57 - y24_57 - y35_57 - y16_53 - y9_23 - y47_49 - y9_32 - y28_45 - y6_8 - y9_50 - y6_26 - y9_59 - y6_35 - y29_37 - y10_14 - y31_46 - y10_23 - y20_55 - y10_32 - y2_28 - y2_37 - y24_34 - y43_47 - y1_41 - y13_43 - y24_43 - y16_39 - y43_56 - y13_52 - y16_57 - y17_22 - y5_29 - y36_44 - y5_38 - y9_36 - y5_56 - y58_59 - y9_54 - y50_55 - y42_51 - y6_39 - y19_58 - y39_45 - y31_41 - y10_18 - y2_14 - y31_50 - y23_46 - y20_59 - y2_23 - y31_59 - y13_20 - y4_51 - y32_33 - y16_25 - y24_38 - y1_45 - y35_47 - y1_54 - y13_56 - y35_56 - y46_53 - y5_24 - y38_58 - y49_58 - y9_31 - y28_44 - y6_7 - y9_40 - y6_25 - y8_53 - y0_49 - y20_27 - y0_58 - y31_36 - y10_13 - y39_49 - y23_41 - y16_20 - y1_49 - y46_48 - y1_58 - y38_44 - y17_21 - y46_57 - y6_11 - y27_52 - y30_48 - y19_57 - y39_44 - y12_27 - y4_23 - y39_53 - y12_36 - y4_32 - y12_45 - y23_45 - y20_58 - y4_41 - y1_26 - y4_59 - y16_24 - y1_35 - y24_37 - y5_14 - y38_48 - y5_23 - y9_21 - y38_57 - y19_34 - y30_34 - y19_43 - y1_12 - y13_14 - y45_46 - y1_21 - y16_19 - y14_58 - y46_47 - y9_16 - y15_50 - y26_59 - y27_33 - y11_25 - y19_38 - y0_34 - y42_49 - y0_52 - y11_52 - y41_53 - y20_30 - y12_26 - y44_58 - y12_35 - y22_48 - y1_25 - y16_23 - y22_57 - y34_59 - y14_53 - y26_27 - y15_36 - y26_36 - y46_51 - y26_45 - y0_20 - y27_46 - y11_38 - y41_48 - y4_8 - y52_57 - y33_53 - y12_30 - y4_26 - y4_35 - y22_34 - y1_11 - y22_43 - y1_20 - y14_39 - y34_54 - y3_48 - y7_18 - y7_27 - y15_40 - y7_45 - y8_10 - y18_45 - y27_32 - y11_15 - y8_28 - y8_37 - y41_43 - y33_39 - y4_12 - y33_48 - y44_57 - y22_29 - y1_6 - y14_43 - y3_52 - y14_52 - y15_35 - y18_40 - y8_23 - y25_30 - y4_16 - y10_50 - y33_52 - y22_24 - y3_20 - y22_33 - y3_38 - y37_49
 Subject to
C1: x0+x1 <=1 
C2: x0+x3 <=1 
C3: x0+x8 <=1 
C4: x0+x9 <=1 
C5: x0+x12 <=1 
C6: x0+x14-y0_14 <=1 
C7: x0+x17 <=1 
C8: x0+x18-y0_18 <=1 
C9: x0+x19 <=1 
C10: x0+x20-y0_20 <=1 
C11: x0+x21-y0_21 <=1 
C12: x0+x22 <=1 
C13: x0+x23 <=1 
C14: x0+x25 <=1 
C15: x0+x26 <=1 
C16: x0+x27 <=1 
C17: x0+x28 <=1 
C18: x0+x31 <=1 
C19: x0+x32 <=1 
C20: x0+x34-y0_34 <=1 
C21: x0+x35 <=1 
C22: x0+x36 <=1 
C23: x0+x38 <=1 
C24: x0+x40-y0_40 <=1 
C25: x0+x41-y0_41 <=1 
C26: x0+x42 <=1 
C27: x0+x43 <=1 
C28: x0+x44 <=1 
C29: x0+x46 <=1 
C30: x0+x49-y0_49 <=1 
C31: x0+x50 <=1 
C32: x0+x52-y0_52 <=1 
C33: x0+x54 <=1 
C34: x0+x58-y0_58 <=1 
C35: x0+x59 <=1 
C36: x1+x3 <=1 
C37: x1+x4-y1_4 <=1 
C38: x1+x5-y1_5 <=1 
C39: x1+x6-y1_6 <=1 
C40: x1+x7 <=1 
C41: x1+x8 <=1 
C42: x1+x11-y1_11 <=1 
C43: x1+x12-y1_12 <=1 
C44: x1+x14 <=1 
C45: x1+x18 <=1 
C46: x1+x19 <=1 
C47: x1+x20-y1_20 <=1 
C48: x1+x21-y1_21 <=1 
C49: x1+x23 <=1 
C50: x1+x25-y1_25 <=1 
C51: x1+x26-y1_26 <=1 
C52: x1+x27 <=1 
C53: x1+x31 <=1 
C54: x1+x32-y1_32 <=1 
C55: x1+x34-y1_34 <=1 
C56: x1+x35-y1_35 <=1 
C57: x1+x36 <=1 
C58: x1+x37-y1_37 <=1 
C59: x1+x40 <=1 
C60: x1+x41-y1_41 <=1 
C61: x1+x42-y1_42 <=1 
C62: x1+x43 <=1 
C63: x1+x45-y1_45 <=1 
C64: x1+x46-y1_46 <=1 
C65: x1+x47 <=1 
C66: x1+x49-y1_49 <=1 
C67: x1+x52 <=1 
C68: x1+x54-y1_54 <=1 
C69: x1+x55 <=1 
C70: x1+x56 <=1 
C71: x1+x57 <=1 
C72: x1+x58-y1_58 <=1 
C73: x1+x59 <=1 
C74: x2+x3-y2_3 <=1 
C75: x2+x7-y2_7 <=1 
C76: x2+x8 <=1 
C77: x2+x10 <=1 
C78: x2+x11-y2_11 <=1 
C79: x2+x13 <=1 
C80: x2+x14-y2_14 <=1 
C81: x2+x15-y2_15 <=1 
C82: x2+x16-y2_16 <=1 
C83: x2+x22-y2_22 <=1 
C84: x2+x23-y2_23 <=1 
C85: x2+x24-y2_24 <=1 
C86: x2+x25-y2_25 <=1 
C87: x2+x26-y2_26 <=1 
C88: x2+x28-y2_28 <=1 
C89: x2+x29-y2_29 <=1 
C90: x2+x30 <=1 
C91: x2+x31 <=1 
C92: x2+x34 <=1 
C93: x2+x35-y2_35 <=1 
C94: x2+x36 <=1 
C95: x2+x37-y2_37 <=1 
C96: x2+x38 <=1 
C97: x2+x41-y2_41 <=1 
C98: x2+x42 <=1 
C99: x2+x43-y2_43 <=1 
C100: x2+x44 <=1 
C101: x2+x45-y2_45 <=1 
C102: x2+x46 <=1 
C103: x2+x47 <=1 
C104: x2+x49-y2_49 <=1 
C105: x2+x50-y2_50 <=1 
C106: x2+x52 <=1 
C107: x2+x53 <=1 
C108: x2+x54-y2_54 <=1 
C109: x2+x56 <=1 
C110: x2+x57-y2_57 <=1 
C111: x3+x7 <=1 
C112: x3+x13-y3_13 <=1 
C113: x3+x14-y3_14 <=1 
C114: x3+x16 <=1 
C115: x3+x19 <=1 
C116: x3+x20-y3_20 <=1 
C117: x3+x27 <=1 
C118: x3+x30-y3_30 <=1 
C119: x3+x31-y3_31 <=1 
C120: x3+x32 <=1 
C121: x3+x33 <=1 
C122: x3+x35 <=1 
C123: x3+x36 <=1 
C124: x3+x37 <=1 
C125: x3+x38-y3_38 <=1 
C126: x3+x40-y3_40 <=1 
C127: x3+x41-y3_41 <=1 
C128: x3+x44 <=1 
C129: x3+x46-y3_46 <=1 
C130: x3+x47 <=1 
C131: x3+x48-y3_48 <=1 
C132: x3+x49 <=1 
C133: x3+x50-y3_50 <=1 
C134: x3+x52-y3_52 <=1 
C135: x3+x53 <=1 
C136: x3+x54-y3_54 <=1 
C137: x3+x55-y3_55 <=1 
C138: x3+x56 <=1 
C139: x3+x57 <=1 
C140: x3+x58 <=1 
C141: x3+x59-y3_59 <=1 
C142: x4+x5-y4_5 <=1 
C143: x4+x6-y4_6 <=1 
C144: x4+x7 <=1 
C145: x4+x8-y4_8 <=1 
C146: x4+x9 <=1 
C147: x4+x12-y4_12 <=1 
C148: x4+x14-y4_14 <=1 
C149: x4+x15 <=1 
C150: x4+x16-y4_16 <=1 
C151: x4+x17 <=1 
C152: x4+x20 <=1 
C153: x4+x22 <=1 
C154: x4+x23-y4_23 <=1 
C155: x4+x24 <=1 
C156: x4+x26-y4_26 <=1 
C157: x4+x27 <=1 
C158: x4+x28 <=1 
C159: x4+x29-y4_29 <=1 
C160: x4+x31 <=1 
C161: x4+x32-y4_32 <=1 
C162: x4+x33 <=1 
C163: x4+x34 <=1 
C164: x4+x35-y4_35 <=1 
C165: x4+x37 <=1 
C166: x4+x38 <=1 
C167: x4+x39-y4_39 <=1 
C168: x4+x41-y4_41 <=1 
C169: x4+x42 <=1 
C170: x4+x43-y4_43 <=1 
C171: x4+x44 <=1 
C172: x4+x47-y4_47 <=1 
C173: x4+x48-y4_48 <=1 
C174: x4+x49-y4_49 <=1 
C175: x4+x51-y4_51 <=1 
C176: x4+x52 <=1 
C177: x4+x54 <=1 
C178: x4+x55 <=1 
C179: x4+x57-y4_57 <=1 
C180: x4+x58 <=1 
C181: x4+x59-y4_59 <=1 
C182: x5+x6 <=1 
C183: x5+x7 <=1 
C184: x5+x11-y5_11 <=1 
C185: x5+x14-y5_14 <=1 
C186: x5+x17-y5_17 <=1 
C187: x5+x18 <=1 
C188: x5+x21 <=1 
C189: x5+x23-y5_23 <=1 
C190: x5+x24-y5_24 <=1 
C191: x5+x26 <=1 
C192: x5+x27 <=1 
C193: x5+x29-y5_29 <=1 
C194: x5+x31-y5_31 <=1 
C195: x5+x32 <=1 
C196: x5+x33 <=1 
C197: x5+x35-y5_35 <=1 
C198: x5+x36-y5_36 <=1 
C199: x5+x37 <=1 
C200: x5+x38-y5_38 <=1 
C201: x5+x40 <=1 
C202: x5+x41 <=1 
C203: x5+x43 <=1 
C204: x5+x44 <=1 
C205: x5+x46-y5_46 <=1 
C206: x5+x47 <=1 
C207: x5+x48-y5_48 <=1 
C208: x5+x50-y5_50 <=1 
C209: x5+x52 <=1 
C210: x5+x53 <=1 
C211: x5+x54-y5_54 <=1 
C212: x5+x55 <=1 
C213: x5+x56-y5_56 <=1 
C214: x5+x57-y5_57 <=1 
C215: x5+x59-y5_59 <=1 
C216: x6+x7-y6_7 <=1 
C217: x6+x8-y6_8 <=1 
C218: x6+x9-y6_9 <=1 
C219: x6+x11-y6_11 <=1 
C220: x6+x13-y6_13 <=1 
C221: x6+x14-y6_14 <=1 
C222: x6+x16 <=1 
C223: x6+x17 <=1 
C224: x6+x18-y6_18 <=1 
C225: x6+x19 <=1 
C226: x6+x20 <=1 
C227: x6+x24 <=1 
C228: x6+x25-y6_25 <=1 
C229: x6+x26-y6_26 <=1 
C230: x6+x27 <=1 
C231: x6+x29 <=1 
C232: x6+x30 <=1 
C233: x6+x31 <=1 
C234: x6+x33 <=1 
C235: x6+x34 <=1 
C236: x6+x35-y6_35 <=1 
C237: x6+x36 <=1 
C238: x6+x37 <=1 
C239: x6+x38-y6_38 <=1 
C240: x6+x39-y6_39 <=1 
C241: x6+x40 <=1 
C242: x6+x41-y6_41 <=1 
C243: x6+x42 <=1 
C244: x6+x43-y6_43 <=1 
C245: x6+x45-y6_45 <=1 
C246: x6+x46-y6_46 <=1 
C247: x6+x48 <=1 
C248: x6+x49-y6_49 <=1 
C249: x6+x53 <=1 
C250: x6+x54 <=1 
C251: x6+x55 <=1 
C252: x6+x59-y6_59 <=1 
C253: x7+x8 <=1 
C254: x7+x9 <=1 
C255: x7+x11-y7_11 <=1 
C256: x7+x13 <=1 
C257: x7+x15 <=1 
C258: x7+x16-y7_16 <=1 
C259: x7+x18-y7_18 <=1 
C260: x7+x23 <=1 
C261: x7+x24 <=1 
C262: x7+x25-y7_25 <=1 
C263: x7+x26 <=1 
C264: x7+x27-y7_27 <=1 
C265: x7+x28-y7_28 <=1 
C266: x7+x29-y7_29 <=1 
C267: x7+x30-y7_30 <=1 
C268: x7+x31 <=1 
C269: x7+x36 <=1 
C270: x7+x38 <=1 
C271: x7+x40 <=1 
C272: x7+x41 <=1 
C273: x7+x42 <=1 
C274: x7+x45-y7_45 <=1 
C275: x7+x46 <=1 
C276: x7+x52 <=1 
C277: x7+x53 <=1 
C278: x7+x56-y7_56 <=1 
C279: x7+x57 <=1 
C280: x8+x10-y8_10 <=1 
C281: x8+x11-y8_11 <=1 
C282: x8+x12-y8_12 <=1 
C283: x8+x13 <=1 
C284: x8+x14 <=1 
C285: x8+x16 <=1 
C286: x8+x17 <=1 
C287: x8+x18-y8_18 <=1 
C288: x8+x19 <=1 
C289: x8+x23-y8_23 <=1 
C290: x8+x24 <=1 
C291: x8+x25 <=1 
C292: x8+x27-y8_27 <=1 
C293: x8+x28-y8_28 <=1 
C294: x8+x30-y8_30 <=1 
C295: x8+x32-y8_32 <=1 
C296: x8+x33 <=1 
C297: x8+x34 <=1 
C298: x8+x36 <=1 
C299: x8+x37-y8_37 <=1 
C300: x8+x41-y8_41 <=1 
C301: x8+x42 <=1 
C302: x8+x45-y8_45 <=1 
C303: x8+x46-y8_46 <=1 
C304: x8+x48 <=1 
C305: x8+x49 <=1 
C306: x8+x50-y8_50 <=1 
C307: x8+x51 <=1 
C308: x8+x52 <=1 
C309: x8+x53-y8_53 <=1 
C310: x8+x54-y8_54 <=1 
C311: x8+x59-y8_59 <=1 
C312: x9+x13 <=1 
C313: x9+x14-y9_14 <=1 
C314: x9+x16-y9_16 <=1 
C315: x9+x18 <=1 
C316: x9+x21-y9_21 <=1 
C317: x9+x22 <=1 
C318: x9+x23-y9_23 <=1 
C319: x9+x28 <=1 
C320: x9+x31-y9_31 <=1 
C321: x9+x32-y9_32 <=1 
C322: x9+x33 <=1 
C323: x9+x36-y9_36 <=1 
C324: x9+x37 <=1 
C325: x9+x38-y9_38 <=1 
C326: x9+x39 <=1 
C327: x9+x40-y9_40 <=1 
C328: x9+x43 <=1 
C329: x9+x44 <=1 
C330: x9+x46 <=1 
C331: x9+x48-y9_48 <=1 
C332: x9+x49-y9_49 <=1 
C333: x9+x50-y9_50 <=1 
C334: x9+x51-y9_51 <=1 
C335: x9+x53-y9_53 <=1 
C336: x9+x54-y9_54 <=1 
C337: x9+x55 <=1 
C338: x9+x57 <=1 
C339: x9+x58-y9_58 <=1 
C340: x9+x59-y9_59 <=1 
C341: x10+x12 <=1 
C342: x10+x13-y10_13 <=1 
C343: x10+x14-y10_14 <=1 
C344: x10+x17-y10_17 <=1 
C345: x10+x18-y10_18 <=1 
C346: x10+x19 <=1 
C347: x10+x20 <=1 
C348: x10+x23-y10_23 <=1 
C349: x10+x24-y10_24 <=1 
C350: x10+x25-y10_25 <=1 
C351: x10+x26-y10_26 <=1 
C352: x10+x29 <=1 
C353: x10+x31-y10_31 <=1 
C354: x10+x32-y10_32 <=1 
C355: x10+x33-y10_33 <=1 
C356: x10+x35 <=1 
C357: x10+x36 <=1 
C358: x10+x37 <=1 
C359: x10+x38-y10_38 <=1 
C360: x10+x39-y10_39 <=1 
C361: x10+x45 <=1 
C362: x10+x46 <=1 
C363: x10+x47 <=1 
C364: x10+x49-y10_49 <=1 
C365: x10+x50-y10_50 <=1 
C366: x10+x51-y10_51 <=1 
C367: x10+x52-y10_52 <=1 
C368: x10+x53-y10_53 <=1 
C369: x10+x55 <=1 
C370: x10+x58 <=1 
C371: x10+x59 <=1 
C372: x11+x13 <=1 
C373: x11+x14 <=1 
C374: x11+x15-y11_15 <=1 
C375: x11+x16 <=1 
C376: x11+x18-y11_18 <=1 
C377: x11+x20 <=1 
C378: x11+x21 <=1 
C379: x11+x23 <=1 
C380: x11+x25-y11_25 <=1 
C381: x11+x26-y11_26 <=1 
C382: x11+x27 <=1 
C383: x11+x30-y11_30 <=1 
C384: x11+x31 <=1 
C385: x11+x32 <=1 
C386: x11+x35-y11_35 <=1 
C387: x11+x36-y11_36 <=1 
C388: x11+x37 <=1 
C389: x11+x38-y11_38 <=1 
C390: x11+x41-y11_41 <=1 
C391: x11+x43 <=1 
C392: x11+x45-y11_45 <=1 
C393: x11+x46-y11_46 <=1 
C394: x11+x49-y11_49 <=1 
C395: x11+x50-y11_50 <=1 
C396: x11+x52-y11_52 <=1 
C397: x11+x53 <=1 
C398: x11+x58 <=1 
C399: x11+x59 <=1 
C400: x12+x14-y12_14 <=1 
C401: x12+x19-y12_19 <=1 
C402: x12+x20 <=1 
C403: x12+x21 <=1 
C404: x12+x24 <=1 
C405: x12+x26-y12_26 <=1 
C406: x12+x27-y12_27 <=1 
C407: x12+x28 <=1 
C408: x12+x30-y12_30 <=1 
C409: x12+x34-y12_34 <=1 
C410: x12+x35-y12_35 <=1 
C411: x12+x36-y12_36 <=1 
C412: x12+x37 <=1 
C413: x12+x39 <=1 
C414: x12+x41 <=1 
C415: x12+x42 <=1 
C416: x12+x43-y12_43 <=1 
C417: x12+x44-y12_44 <=1 
C418: x12+x45-y12_45 <=1 
C419: x12+x46 <=1 
C420: x12+x47 <=1 
C421: x12+x48 <=1 
C422: x12+x49 <=1 
C423: x12+x53-y12_53 <=1 
C424: x12+x54 <=1 
C425: x12+x56 <=1 
C426: x12+x57-y12_57 <=1 
C427: x12+x58-y12_58 <=1 
C428: x12+x59 <=1 
C429: x13+x14-y13_14 <=1 
C430: x13+x16-y13_16 <=1 
C431: x13+x20-y13_20 <=1 
C432: x13+x23 <=1 
C433: x13+x24 <=1 
C434: x13+x25 <=1 
C435: x13+x26-y13_26 <=1 
C436: x13+x27-y13_27 <=1 
C437: x13+x29 <=1 
C438: x13+x30 <=1 
C439: x13+x31 <=1 
C440: x13+x32 <=1 
C441: x13+x35-y13_35 <=1 
C442: x13+x36-y13_36 <=1 
C443: x13+x38 <=1 
C444: x13+x40 <=1 
C445: x13+x42 <=1 
C446: x13+x43-y13_43 <=1 
C447: x13+x44-y13_44 <=1 
C448: x13+x45 <=1 
C449: x13+x46-y13_46 <=1 
C450: x13+x47 <=1 
C451: x13+x50 <=1 
C452: x13+x52-y13_52 <=1 
C453: x13+x54 <=1 
C454: x13+x56-y13_56 <=1 
C455: x13+x57-y13_57 <=1 
C456: x13+x58-y13_58 <=1 
C457: x14+x16 <=1 
C458: x14+x19 <=1 
C459: x14+x23 <=1 
C460: x14+x26 <=1 
C461: x14+x28-y14_28 <=1 
C462: x14+x30 <=1 
C463: x14+x31 <=1 
C464: x14+x32 <=1 
C465: x14+x37 <=1 
C466: x14+x39-y14_39 <=1 
C467: x14+x40-y14_40 <=1 
C468: x14+x41-y14_41 <=1 
C469: x14+x42 <=1 
C470: x14+x43-y14_43 <=1 
C471: x14+x45 <=1 
C472: x14+x48 <=1 
C473: x14+x49-y14_49 <=1 
C474: x14+x52-y14_52 <=1 
C475: x14+x53-y14_53 <=1 
C476: x14+x54 <=1 
C477: x14+x55-y14_55 <=1 
C478: x14+x57 <=1 
C479: x14+x58-y14_58 <=1 
C480: x15+x16-y15_16 <=1 
C481: x15+x17 <=1 
C482: x15+x18 <=1 
C483: x15+x19-y15_19 <=1 
C484: x15+x21-y15_21 <=1 
C485: x15+x22 <=1 
C486: x15+x23-y15_23 <=1 
C487: x15+x24-y15_24 <=1 
C488: x15+x29-y15_29 <=1 
C489: x15+x30-y15_30 <=1 
C490: x15+x32 <=1 
C491: x15+x33-y15_33 <=1 
C492: x15+x34-y15_34 <=1 
C493: x15+x35-y15_35 <=1 
C494: x15+x36-y15_36 <=1 
C495: x15+x38-y15_38 <=1 
C496: x15+x40-y15_40 <=1 
C497: x15+x41 <=1 
C498: x15+x42-y15_42 <=1 
C499: x15+x45 <=1 
C500: x15+x49 <=1 
C501: x15+x50-y15_50 <=1 
C502: x15+x52 <=1 
C503: x15+x53-y15_53 <=1 
C504: x15+x54 <=1 
C505: x15+x56 <=1 
C506: x15+x57 <=1 
C507: x15+x58 <=1 
C508: x16+x17 <=1 
C509: x16+x19-y16_19 <=1 
C510: x16+x20-y16_20 <=1 
C511: x16+x21 <=1 
C512: x16+x23-y16_23 <=1 
C513: x16+x24-y16_24 <=1 
C514: x16+x25-y16_25 <=1 
C515: x16+x26 <=1 
C516: x16+x27-y16_27 <=1 
C517: x16+x31 <=1 
C518: x16+x32-y16_32 <=1 
C519: x16+x34 <=1 
C520: x16+x37-y16_37 <=1 
C521: x16+x39-y16_39 <=1 
C522: x16+x40 <=1 
C523: x16+x41-y16_41 <=1 
C524: x16+x43 <=1 
C525: x16+x44 <=1 
C526: x16+x46 <=1 
C527: x16+x52 <=1 
C528: x16+x53-y16_53 <=1 
C529: x16+x56-y16_56 <=1 
C530: x16+x57-y16_57 <=1 
C531: x17+x19-y17_19 <=1 
C532: x17+x20 <=1 
C533: x17+x21-y17_21 <=1 
C534: x17+x22-y17_22 <=1 
C535: x17+x24-y17_24 <=1 
C536: x17+x27 <=1 
C537: x17+x29-y17_29 <=1 
C538: x17+x31 <=1 
C539: x17+x36 <=1 
C540: x17+x37-y17_37 <=1 
C541: x17+x41 <=1 
C542: x17+x42-y17_42 <=1 
C543: x17+x43-y17_43 <=1 
C544: x17+x44 <=1 
C545: x17+x45 <=1 
C546: x17+x48 <=1 
C547: x17+x51 <=1 
C548: x17+x52 <=1 
C549: x17+x53 <=1 
C550: x17+x56 <=1 
C551: x17+x57-y17_57 <=1 
C552: x17+x58 <=1 
C553: x17+x59 <=1 
C554: x18+x21-y18_21 <=1 
C555: x18+x26 <=1 
C556: x18+x27 <=1 
C557: x18+x28 <=1 
C558: x18+x29-y18_29 <=1 
C559: x18+x30-y18_30 <=1 
C560: x18+x32 <=1 
C561: x18+x34-y18_34 <=1 
C562: x18+x35 <=1 
C563: x18+x36 <=1 
C564: x18+x37-y18_37 <=1 
C565: x18+x38 <=1 
C566: x18+x39-y18_39 <=1 
C567: x18+x40-y18_40 <=1 
C568: x18+x41 <=1 
C569: x18+x42 <=1 
C570: x18+x43 <=1 
C571: x18+x45-y18_45 <=1 
C572: x18+x46 <=1 
C573: x18+x52-y18_52 <=1 
C574: x18+x54 <=1 
C575: x18+x57 <=1 
C576: x18+x58 <=1 
C577: x18+x59 <=1 
C578: x19+x20 <=1 
C579: x19+x22-y19_22 <=1 
C580: x19+x23 <=1 
C581: x19+x25 <=1 
C582: x19+x27-y19_27 <=1 
C583: x19+x29 <=1 
C584: x19+x31 <=1 
C585: x19+x32 <=1 
C586: x19+x34-y19_34 <=1 
C587: x19+x35-y19_35 <=1 
C588: x19+x37 <=1 
C589: x19+x38-y19_38 <=1 
C590: x19+x39 <=1 
C591: x19+x43-y19_43 <=1 
C592: x19+x45-y19_45 <=1 
C593: x19+x48 <=1 
C594: x19+x51 <=1 
C595: x19+x53 <=1 
C596: x19+x54 <=1 
C597: x19+x55 <=1 
C598: x19+x56 <=1 
C599: x19+x57-y19_57 <=1 
C600: x19+x58-y19_58 <=1 
C601: x20+x22 <=1 
C602: x20+x23-y20_23 <=1 
C603: x20+x25 <=1 
C604: x20+x26 <=1 
C605: x20+x27-y20_27 <=1 
C606: x20+x29 <=1 
C607: x20+x30-y20_30 <=1 
C608: x20+x31 <=1 
C609: x20+x34-y20_34 <=1 
C610: x20+x37-y20_37 <=1 
C611: x20+x38 <=1 
C612: x20+x39-y20_39 <=1 
C613: x20+x41 <=1 
C614: x20+x44 <=1 
C615: x20+x47 <=1 
C616: x20+x51-y20_51 <=1 
C617: x20+x52 <=1 
C618: x20+x53-y20_53 <=1 
C619: x20+x54 <=1 
C620: x20+x55-y20_55 <=1 
C621: x20+x57-y20_57 <=1 
C622: x20+x58-y20_58 <=1 
C623: x20+x59-y20_59 <=1 
C624: x21+x22-y21_22 <=1 
C625: x21+x27 <=1 
C626: x21+x29-y21_29 <=1 
C627: x21+x33 <=1 
C628: x21+x34-y21_34 <=1 
C629: x21+x35-y21_35 <=1 
C630: x21+x38-y21_38 <=1 
C631: x21+x39 <=1 
C632: x21+x42 <=1 
C633: x21+x45-y21_45 <=1 
C634: x21+x46-y21_46 <=1 
C635: x21+x49 <=1 
C636: x21+x51 <=1 
C637: x21+x52-y21_52 <=1 
C638: x21+x53 <=1 
C639: x21+x54-y21_54 <=1 
C640: x21+x55-y21_55 <=1 
C641: x21+x57 <=1 
C642: x21+x58-y21_58 <=1 
C643: x21+x59 <=1 
C644: x22+x23 <=1 
C645: x22+x24-y22_24 <=1 
C646: x22+x25-y22_25 <=1 
C647: x22+x27 <=1 
C648: x22+x29-y22_29 <=1 
C649: x22+x31 <=1 
C650: x22+x32 <=1 
C651: x22+x33-y22_33 <=1 
C652: x22+x34-y22_34 <=1 
C653: x22+x35-y22_35 <=1 
C654: x22+x36 <=1 
C655: x22+x37 <=1 
C656: x22+x38 <=1 
C657: x22+x39 <=1 
C658: x22+x40 <=1 
C659: x22+x41 <=1 
C660: x22+x42 <=1 
C661: x22+x43-y22_43 <=1 
C662: x22+x45 <=1 
C663: x22+x48-y22_48 <=1 
C664: x22+x49-y22_49 <=1 
C665: x22+x51 <=1 
C666: x22+x55 <=1 
C667: x22+x56 <=1 
C668: x22+x57-y22_57 <=1 
C669: x22+x58-y22_58 <=1 
C670: x23+x26 <=1 
C671: x23+x27 <=1 
C672: x23+x28-y23_28 <=1 
C673: x23+x32 <=1 
C674: x23+x33 <=1 
C675: x23+x35 <=1 
C676: x23+x39 <=1 
C677: x23+x41-y23_41 <=1 
C678: x23+x45-y23_45 <=1 
C679: x23+x46-y23_46 <=1 
C680: x23+x48-y23_48 <=1 
C681: x23+x52-y23_52 <=1 
C682: x23+x54 <=1 
C683: x23+x56 <=1 
C684: x23+x57 <=1 
C685: x23+x58 <=1 
C686: x24+x25-y24_25 <=1 
C687: x24+x26-y24_26 <=1 
C688: x24+x27 <=1 
C689: x24+x28 <=1 
C690: x24+x29 <=1 
C691: x24+x31-y24_31 <=1 
C692: x24+x32 <=1 
C693: x24+x33 <=1 
C694: x24+x34-y24_34 <=1 
C695: x24+x36 <=1 
C696: x24+x37-y24_37 <=1 
C697: x24+x38-y24_38 <=1 
C698: x24+x41-y24_41 <=1 
C699: x24+x43-y24_43 <=1 
C700: x24+x45-y24_45 <=1 
C701: x24+x49 <=1 
C702: x24+x51 <=1 
C703: x24+x52 <=1 
C704: x24+x57-y24_57 <=1 
C705: x24+x58-y24_58 <=1 
C706: x25+x26 <=1 
C707: x25+x27-y25_27 <=1 
C708: x25+x28 <=1 
C709: x25+x29 <=1 
C710: x25+x30-y25_30 <=1 
C711: x25+x33-y25_33 <=1 
C712: x25+x35-y25_35 <=1 
C713: x25+x37-y25_37 <=1 
C714: x25+x38 <=1 
C715: x25+x40 <=1 
C716: x25+x45 <=1 
C717: x25+x46-y25_46 <=1 
C718: x25+x50-y25_50 <=1 
C719: x25+x51 <=1 
C720: x25+x54-y25_54 <=1 
C721: x25+x55-y25_55 <=1 
C722: x25+x57 <=1 
C723: x25+x58 <=1 
C724: x25+x59 <=1 
C725: x26+x27-y26_27 <=1 
C726: x26+x28 <=1 
C727: x26+x32-y26_32 <=1 
C728: x26+x33 <=1 
C729: x26+x36-y26_36 <=1 
C730: x26+x38 <=1 
C731: x26+x39 <=1 
C732: x26+x40 <=1 
C733: x26+x42 <=1 
C734: x26+x44 <=1 
C735: x26+x45-y26_45 <=1 
C736: x26+x48 <=1 
C737: x26+x52 <=1 
C738: x26+x56 <=1 
C739: x26+x57-y26_57 <=1 
C740: x26+x59-y26_59 <=1 
C741: x27+x28 <=1 
C742: x27+x31 <=1 
C743: x27+x32-y27_32 <=1 
C744: x27+x33-y27_33 <=1 
C745: x27+x34 <=1 
C746: x27+x35 <=1 
C747: x27+x37 <=1 
C748: x27+x39 <=1 
C749: x27+x40 <=1 
C750: x27+x41-y27_41 <=1 
C751: x27+x45-y27_45 <=1 
C752: x27+x46-y27_46 <=1 
C753: x27+x47 <=1 
C754: x27+x48 <=1 
C755: x27+x50-y27_50 <=1 
C756: x27+x52-y27_52 <=1 
C757: x27+x58-y27_58 <=1 
C758: x28+x29 <=1 
C759: x28+x30 <=1 
C760: x28+x33-y28_33 <=1 
C761: x28+x34-y28_34 <=1 
C762: x28+x35 <=1 
C763: x28+x36 <=1 
C764: x28+x38-y28_38 <=1 
C765: x28+x40 <=1 
C766: x28+x41 <=1 
C767: x28+x43-y28_43 <=1 
C768: x28+x44-y28_44 <=1 
C769: x28+x45-y28_45 <=1 
C770: x28+x49 <=1 
C771: x28+x50 <=1 
C772: x28+x51 <=1 
C773: x28+x52-y28_52 <=1 
C774: x28+x53-y28_53 <=1 
C775: x28+x54 <=1 
C776: x28+x55 <=1 
C777: x28+x56-y28_56 <=1 
C778: x28+x57 <=1 
C779: x28+x58 <=1 
C780: x29+x30 <=1 
C781: x29+x32-y29_32 <=1 
C782: x29+x35 <=1 
C783: x29+x36 <=1 
C784: x29+x37-y29_37 <=1 
C785: x29+x38 <=1 
C786: x29+x39 <=1 
C787: x29+x40-y29_40 <=1 
C788: x29+x41-y29_41 <=1 
C789: x29+x42 <=1 
C790: x29+x43-y29_43 <=1 
C791: x29+x47 <=1 
C792: x29+x48 <=1 
C793: x29+x50-y29_50 <=1 
C794: x29+x52 <=1 
C795: x29+x53-y29_53 <=1 
C796: x29+x55 <=1 
C797: x29+x56 <=1 
C798: x29+x59-y29_59 <=1 
C799: x30+x31-y30_31 <=1 
C800: x30+x34-y30_34 <=1 
C801: x30+x35 <=1 
C802: x30+x36-y30_36 <=1 
C803: x30+x37 <=1 
C804: x30+x38 <=1 
C805: x30+x41 <=1 
C806: x30+x44 <=1 
C807: x30+x45 <=1 
C808: x30+x47 <=1 
C809: x30+x48-y30_48 <=1 
C810: x30+x49-y30_49 <=1 
C811: x30+x52 <=1 
C812: x30+x53 <=1 
C813: x30+x54-y30_54 <=1 
C814: x30+x58 <=1 
C815: x30+x59 <=1 
C816: x31+x36-y31_36 <=1 
C817: x31+x38 <=1 
C818: x31+x40 <=1 
C819: x31+x41-y31_41 <=1 
C820: x31+x42-y31_42 <=1 
C821: x31+x46-y31_46 <=1 
C822: x31+x50-y31_50 <=1 
C823: x31+x51 <=1 
C824: x31+x52-y31_52 <=1 
C825: x31+x53 <=1 
C826: x31+x55 <=1 
C827: x31+x59-y31_59 <=1 
C828: x32+x33-y32_33 <=1 
C829: x32+x35 <=1 
C830: x32+x37 <=1 
C831: x32+x39-y32_39 <=1 
C832: x32+x40-y32_40 <=1 
C833: x32+x41 <=1 
C834: x32+x42 <=1 
C835: x32+x46 <=1 
C836: x32+x49 <=1 
C837: x32+x50-y32_50 <=1 
C838: x32+x51 <=1 
C839: x32+x52-y32_52 <=1 
C840: x32+x54 <=1 
C841: x32+x55-y32_55 <=1 
C842: x32+x59-y32_59 <=1 
C843: x33+x36-y33_36 <=1 
C844: x33+x37-y33_37 <=1 
C845: x33+x38 <=1 
C846: x33+x39-y33_39 <=1 
C847: x33+x41 <=1 
C848: x33+x42 <=1 
C849: x33+x44-y33_44 <=1 
C850: x33+x45 <=1 
C851: x33+x48-y33_48 <=1 
C852: x33+x49 <=1 
C853: x33+x51 <=1 
C854: x33+x52-y33_52 <=1 
C855: x33+x53-y33_53 <=1 
C856: x33+x54 <=1 
C857: x33+x55 <=1 
C858: x33+x56-y33_56 <=1 
C859: x33+x58 <=1 
C860: x33+x59 <=1 
C861: x34+x36 <=1 
C862: x34+x37-y34_37 <=1 
C863: x34+x38 <=1 
C864: x34+x40 <=1 
C865: x34+x41 <=1 
C866: x34+x42-y34_42 <=1 
C867: x34+x46 <=1 
C868: x34+x52-y34_52 <=1 
C869: x34+x53-y34_53 <=1 
C870: x34+x54-y34_54 <=1 
C871: x34+x55 <=1 
C872: x34+x56 <=1 
C873: x34+x58 <=1 
C874: x34+x59-y34_59 <=1 
C875: x35+x36 <=1 
C876: x35+x40 <=1 
C877: x35+x41 <=1 
C878: x35+x42 <=1 
C879: x35+x43 <=1 
C880: x35+x44-y35_44 <=1 
C881: x35+x47-y35_47 <=1 
C882: x35+x49 <=1 
C883: x35+x51 <=1 
C884: x35+x53 <=1 
C885: x35+x54 <=1 
C886: x35+x56-y35_56 <=1 
C887: x35+x57-y35_57 <=1 
C888: x35+x58 <=1 
C889: x35+x59 <=1 
C890: x36+x37-y36_37 <=1 
C891: x36+x38 <=1 
C892: x36+x39 <=1 
C893: x36+x40 <=1 
C894: x36+x41 <=1 
C895: x36+x43-y36_43 <=1 
C896: x36+x44-y36_44 <=1 
C897: x36+x46-y36_46 <=1 
C898: x36+x47 <=1 
C899: x36+x50 <=1 
C900: x36+x51 <=1 
C901: x36+x54 <=1 
C902: x36+x55-y36_55 <=1 
C903: x36+x56 <=1 
C904: x36+x57-y36_57 <=1 
C905: x36+x58 <=1 
C906: x36+x59-y36_59 <=1 
C907: x37+x42 <=1 
C908: x37+x43 <=1 
C909: x37+x44 <=1 
C910: x37+x45 <=1 
C911: x37+x46 <=1 
C912: x37+x47-y37_47 <=1 
C913: x37+x48 <=1 
C914: x37+x49-y37_49 <=1 
C915: x37+x50 <=1 
C916: x37+x52 <=1 
C917: x37+x53 <=1 
C918: x37+x54 <=1 
C919: x37+x56 <=1 
C920: x37+x57 <=1 
C921: x37+x58-y37_58 <=1 
C922: x38+x39 <=1 
C923: x38+x40-y38_40 <=1 
C924: x38+x43 <=1 
C925: x38+x44-y38_44 <=1 
C926: x38+x45-y38_45 <=1 
C927: x38+x46 <=1 
C928: x38+x47 <=1 
C929: x38+x48-y38_48 <=1 
C930: x38+x49-y38_49 <=1 
C931: x38+x50 <=1 
C932: x38+x51 <=1 
C933: x38+x53 <=1 
C934: x38+x54 <=1 
C935: x38+x57-y38_57 <=1 
C936: x38+x58-y38_58 <=1 
C937: x39+x42-y39_42 <=1 
C938: x39+x44-y39_44 <=1 
C939: x39+x45-y39_45 <=1 
C940: x39+x46-y39_46 <=1 
C941: x39+x49-y39_49 <=1 
C942: x39+x53-y39_53 <=1 
C943: x39+x55-y39_55 <=1 
C944: x39+x59 <=1 
C945: x40+x41-y40_41 <=1 
C946: x40+x43 <=1 
C947: x40+x44 <=1 
C948: x40+x45-y40_45 <=1 
C949: x40+x47-y40_47 <=1 
C950: x40+x48 <=1 
C951: x40+x50-y40_50 <=1 
C952: x40+x51-y40_51 <=1 
C953: x40+x54 <=1 
C954: x40+x55 <=1 
C955: x40+x57 <=1 
C956: x40+x58 <=1 
C957: x41+x42-y41_42 <=1 
C958: x41+x43-y41_43 <=1 
C959: x41+x46-y41_46 <=1 
C960: x41+x48-y41_48 <=1 
C961: x41+x50-y41_50 <=1 
C962: x41+x53-y41_53 <=1 
C963: x41+x54 <=1 
C964: x41+x55-y41_55 <=1 
C965: x41+x57 <=1 
C966: x42+x43-y42_43 <=1 
C967: x42+x46 <=1 
C968: x42+x47-y42_47 <=1 
C969: x42+x48-y42_48 <=1 
C970: x42+x49-y42_49 <=1 
C971: x42+x50 <=1 
C972: x42+x51-y42_51 <=1 
C973: x42+x53 <=1 
C974: x42+x54 <=1 
C975: x42+x58 <=1 
C976: x43+x47-y43_47 <=1 
C977: x43+x48 <=1 
C978: x43+x49-y43_49 <=1 
C979: x43+x50 <=1 
C980: x43+x53 <=1 
C981: x43+x54 <=1 
C982: x43+x56-y43_56 <=1 
C983: x43+x57-y43_57 <=1 
C984: x44+x47-y44_47 <=1 
C985: x44+x48 <=1 
C986: x44+x49-y44_49 <=1 
C987: x44+x52 <=1 
C988: x44+x54-y44_54 <=1 
C989: x44+x55 <=1 
C990: x44+x57-y44_57 <=1 
C991: x44+x58-y44_58 <=1 
C992: x44+x59 <=1 
C993: x45+x46-y45_46 <=1 
C994: x45+x47 <=1 
C995: x45+x50 <=1 
C996: x45+x51-y45_51 <=1 
C997: x45+x52 <=1 
C998: x45+x56-y45_56 <=1 
C999: x46+x47-y46_47 <=1 
C1000: x46+x48-y46_48 <=1 
C1001: x46+x51-y46_51 <=1 
C1002: x46+x53-y46_53 <=1 
C1003: x46+x54 <=1 
C1004: x46+x55 <=1 
C1005: x46+x57-y46_57 <=1 
C1006: x46+x58 <=1 
C1007: x47+x48 <=1 
C1008: x47+x49-y47_49 <=1 
C1009: x47+x50-y47_50 <=1 
C1010: x47+x51 <=1 
C1011: x47+x52-y47_52 <=1 
C1012: x47+x54-y47_54 <=1 
C1013: x47+x55-y47_55 <=1 
C1014: x47+x57 <=1 
C1015: x48+x50 <=1 
C1016: x48+x52 <=1 
C1017: x48+x57-y48_57 <=1 
C1018: x48+x59 <=1 
C1019: x49+x50 <=1 
C1020: x49+x51-y49_51 <=1 
C1021: x49+x52 <=1 
C1022: x49+x54-y49_54 <=1 
C1023: x49+x57 <=1 
C1024: x49+x58-y49_58 <=1 
C1025: x49+x59-y49_59 <=1 
C1026: x50+x52 <=1 
C1027: x50+x55-y50_55 <=1 
C1028: x50+x57-y50_57 <=1 
C1029: x50+x58 <=1 
C1030: x50+x59 <=1 
C1031: x51+x53 <=1 
C1032: x51+x56 <=1 
C1033: x51+x57-y51_57 <=1 
C1034: x51+x58-y51_58 <=1 
C1035: x51+x59-y51_59 <=1 
C1036: x52+x54 <=1 
C1037: x52+x55-y52_55 <=1 
C1038: x52+x56 <=1 
C1039: x52+x57-y52_57 <=1 
C1040: x52+x58-y52_58 <=1 
C1041: x52+x59 <=1 
C1042: x53+x54 <=1 
C1043: x53+x55 <=1 
C1044: x53+x57 <=1 
C1045: x54+x55-y54_55 <=1 
C1046: x54+x56 <=1 
C1047: x54+x57 <=1 
C1048: x54+x58-y54_58 <=1 
C1049: x55+x57 <=1 
C1050: x55+x59-y55_59 <=1 
C1051: x56+x57-y56_57 <=1 
C1052: x57+x59-y57_59 <=1 
C1053: x58+x59-y58_59 <=1 

binary
x0
x1
x2
x3
x4
x5
x6
x7
x8
x9
x10
x11
x12
x13
x14
x15
x16
x17
x18
x19
x20
x21
x22
x23
x24
x25
x26
x27
x28
x29
x30
x31
x32
x33
x34
x35
x36
x37
x38
x39
x40
x41
x42
x43
x44
x45
x46
x47
x48
x49
x50
x51
x52
x53
x54
x55
x56
x57
x58
x59
