problem_generation/data/GISP/train/er_n=60_m=1053_p=0.60_SET2_setparam=100.00_alpha=0.50_139.sol
objective value:                                 1270
x3                                                  1 	(obj:100)
x5                                                  1 	(obj:100)
x9                                                  1 	(obj:100)
x10                                                 1 	(obj:100)
x15                                                 1 	(obj:100)
x23                                                 1 	(obj:100)
x24                                                 1 	(obj:100)
x25                                                 1 	(obj:100)
x30                                                 1 	(obj:100)
x31                                                 1 	(obj:100)
x34                                                 1 	(obj:100)
x42                                                 1 	(obj:100)
x48                                                 1 	(obj:100)
y15_30                                              1 	(obj:-1)
y10_31                                              1 	(obj:-1)
y9_48                                               1 	(obj:-1)
y10_25                                              1 	(obj:-1)
y5_31                                               1 	(obj:-1)
y23_48                                              1 	(obj:-1)
y24_31                                              1 	(obj:-1)
y42_48                                              1 	(obj:-1)
y31_42                                              1 	(obj:-1)
y24_25                                              1 	(obj:-1)
y15_34                                              1 	(obj:-1)
y30_31                                              1 	(obj:-1)
y15_24                                              1 	(obj:-1)
y15_42                                              1 	(obj:-1)
y34_42                                              1 	(obj:-1)
y3_31                                               1 	(obj:-1)
y15_23                                              1 	(obj:-1)
y10_24                                              1 	(obj:-1)
y3_30                                               1 	(obj:-1)
y5_48                                               1 	(obj:-1)
y9_23                                               1 	(obj:-1)
y10_23                                              1 	(obj:-1)
y24_34                                              1 	(obj:-1)
y5_24                                               1 	(obj:-1)
y9_31                                               1 	(obj:-1)
y30_48                                              1 	(obj:-1)
y5_23                                               1 	(obj:-1)
y30_34                                              1 	(obj:-1)
y3_48                                               1 	(obj:-1)
y25_30                                              1 	(obj:-1)
